32	0

0	1	2
3	1	3
3	1	4
1	1	5
8	2	6	7
3	1	8
3	1	8
9	1	9
1	1	10
1	1	11
3	1	12
7	1	13
5	1	14
5	2	15	16
4	1	17
10	1	17
7	1	18
3	1	19
3	1	20
1	2	21	22
10	1	23
10	1	23
6	1	24
9	1	25
9	1	26
8	1	27
7	1	28
4	1	29
2	1	30
7	1	31
2	1	32
0	0
